./N2//data.lammps (written by ASE) 

194 	 atoms 
2  atom types
0.0      16.235171696043132  xlo xhi
0.0      14.060071123575442  ylo yhi
0.0      39.113473999158245  zlo zhi


Atoms 

     1   1      2.0293964620053915      1.1716725936312871                       0
     2   1      6.0881893860161744      1.1716725936312871                       0
     3   1      10.146982310026956      1.1716725936312871                       0
     4   1      14.205775234037745      1.1716725936312871                       0
     5   1                       0      4.6866903745251491                       0
     6   1      4.0587929240107821      4.6866903745251491                       0
     7   1      8.1175858480215659      4.6866903745251491                       0
     8   1      12.176378772032349      4.6866903745251491                       0
     9   1      2.0293964620053915      8.2017081554190092                       0
    10   1      6.0881893860161744      8.2017081554190092                       0
    11   1      10.146982310026956      8.2017081554190092                       0
    12   1      14.205775234037745      8.2017081554190092                       0
    13   1                       0      11.716725936312869                       0
    14   1      4.0587929240107821      11.716725936312869                       0
    15   1      8.1175858480215659      11.716725936312869                       0
    16   1      12.176378772032349      11.716725936312869                       0
    17   1                       0      2.3433451872625741     0.82849763628711248
    18   1      4.0587929240107821      2.3433451872625741     0.82849763628711248
    19   1      8.1175858480215659      2.3433451872625741     0.82849763628711248
    20   1      12.176378772032349      2.3433451872625741     0.82849763628711248
    21   1      2.0293964620053915      5.8583629681564338     0.82849763628711248
    22   1      6.0881893860161744      5.8583629681564338     0.82849763628711248
    23   1      10.146982310026956      5.8583629681564338     0.82849763628711248
    24   1      14.205775234037745      5.8583629681564338     0.82849763628711248
    25   1                       0      9.3733807490502965     0.82849763628711248
    26   1      4.0587929240107821      9.3733807490502965     0.82849763628711248
    27   1      8.1175858480215659      9.3733807490502965     0.82849763628711248
    28   1      12.176378772032349      9.3733807490502965     0.82849763628711248
    29   1      2.0293964620053915     -1.1716725936312877     0.82849763628711248
    30   1      6.0881893860161744     -1.1716725936312877     0.82849763628711248
    31   1      10.146982310026956     -1.1716725936312877     0.82849763628711248
    32   1      14.205775234037745     -1.1716725936312877     0.82849763628711248
    33   1  0.00029612027706448608  0.00026105527217990334      1.6570003860308691
    34   1      4.0585583368774074  -0.0014153707420504662       1.656574627251461
    35   1      8.1172431335050383 -0.00080227726922159814      1.6568339868625606
    36   1      12.176782822889164   0.0018861859012105305      1.6571698503870587
    37   1      2.0296540123961146      3.5149433349780943      1.6550765013589273
    38   1      6.0881628721407255      3.5150780111038014      1.6594585146867118
    39   1      10.146789949062175      3.5153193282361945      1.6569605608045219
    40   1      14.204606556000126      3.5161606037083759      1.6577472056069131
    41   1   0.0007910319470430271      7.0291261743329274       1.658398066885163
    42   1      4.0573910729479907      7.0306224188815225      1.6591857282000362
    43   1      8.1165953116964378      7.0294692640581182      1.6570949239393147
    44   1      12.175875296378234      7.0284848983566546      1.6570638355490326
    45   1      2.0283341582916652      10.545526935112218      1.6560758483399931
    46   1      6.0897393204211916      10.544270089389247      1.6566732110580211
    47   1      10.147795827244327      10.543822478365149      1.6572227325088307
    48   1      14.207082376792027       10.54344585944702      1.6571799064327584
    49   1      2.0296563447996405      1.1724544165030644      2.4842559581504591
    50   1      6.0868689294030922      1.1721945351969041      2.4857898935345712
    51   1      10.147232802877303      1.1720190418407843       2.484812884139759
    52   1      14.206007487734906      1.1719656661045859      2.4847785574433106
    53   1   0.0018657745111446879      4.6871642074460613      2.4843016053641342
    54   1      4.0594494776194185       4.685715692854922      2.4862799934650806
    55   1      8.1187444436005745      4.6858696922067962      2.4864562849905814
    56   1      12.176791552959285      4.6875124346851429      2.4873897018439912
    57   1       2.029151073889389      8.2009544192546517      2.4846033944317112
    58   1      6.0873735757312097      8.2016310537095958      2.4858340608361544
    59   1      10.147259000826287      8.2025353386680457      2.4855059107532145
    60   1        14.2072287681149      8.2014434985857712      2.4882130780279272
    61   1  0.00062566734776511813      11.715868778756453      2.4844220163632764
    62   1      4.0592753964260266      11.716502473527543      2.4862069093554284
    63   1      8.1180590856461396      11.716653107400212      2.4846461151432684
    64   1      12.174863924807664      11.716279421360802      2.4863493076556606
    65   1  0.00021409374413011522      2.3420994484838626      3.3141637260743031
    66   1      4.0591782413905131       2.342461329826373      3.3141442702543973
    67   1      8.1176440567400121      2.3422022169647434      3.3143483325087999
    68   1      12.176939556558716        2.34442823850575       3.315044347200486
    69   1      2.0280187926374342      5.8574251431165196      3.3145055804156605
    70   1      6.0887031719670874      5.8588780158427403      3.3178432766391062
    71   1      10.147553200537651      5.8594985337966152      3.3149445469119443
    72   1      14.206426625289049      5.8580476989117942      3.3147495143689447
    73   1 -0.00077282521453761336      9.3731439304435575      3.3135051816006227
    74   1      4.0588747981501703      9.3756954076169716      3.3121232799558591
    75   1        8.11827210821194      9.3717680331791069      3.3135186132826626
    76   1      12.177467722629316      9.3734450290693925      3.3129128003705217
    77   1      2.0286811582961315     -1.1709929958823513      3.3132601785167344
    78   1      6.0884058446057585     -1.1716270217913816      3.3133389448008455
    79   1      10.149126254116283      -1.171038674608968      3.3119654025617931
    80   1      14.205961688352513     -1.1723343800960551      3.3148429784832465
    81   1 -0.00079252073843271364  -0.0001147364414669027       4.142993168714546
    82   1      4.0596586792049543  -0.0012002964070557042      4.1421536801997245
    83   1      8.1171109027104045 -0.00065332923257368277      4.1442536356758461
    84   1       12.17678375374331  -0.0012608839543350979      4.1434060433826199
    85   1      2.0315186182024041      3.5160502461544132      4.1409688114696115
    86   1      6.0877051519433092      3.5162846920430479      4.1417805119699462
    87   1      10.147426129455102      3.5157924149472901      4.1415612509639876
    88   1      14.205715708681682      3.5117765135537913      4.1414637937942311
    89   1 -0.00025256815139322857      7.0287877786057562      4.1441205927394966
    90   1       4.057362782632822      7.0295955173010238      4.1426189220128524
    91   1      8.1190271213106318      7.0285996996365414      4.1436513451877195
    92   1      12.176389005093368      7.0290540531366732      4.1429502849098281
    93   1      2.0295955217009651      10.544453125804424      4.1425579835205557
    94   1      6.0878040724193143      10.545166860026834      4.1431503121100857
    95   1      10.148568326843101      10.543815527182755      4.1446212148102211
    96   1       14.20382314623822      10.544901557586549      4.1430764986420501
    97   1      2.0296774538731266      1.1710498941114662      4.9707776954723188
    98   1      6.0876963850815162      1.1710832288743429      4.9718354198196968
    99   1      10.147339325512922      1.1709796840360267      4.9718854175981102
   100   1       14.20608253355862      1.1724854557501263      4.9716154465646003
   101   1 -0.00082899501092199141       4.686130193484952      4.9717331113277989
   102   1      4.0594032942762164      4.6866694729311842      4.9711031451059844
   103   1      8.1188635129173541      4.6860988031363124      4.9715329151038459
   104   1      12.176176579379916      4.6864726933219218      4.9720845945746639
   105   1      2.0302218783543795      8.2025216650550092      4.9722912965298303
   106   1      6.0882103898578084      8.2023901083903041      4.9706755509660834
   107   1      10.147306476379445      8.2015780123646422      4.9710828136876684
   108   1      14.206370391063182      8.2008899347357769      4.9730782049983615
   109   1   -0.001006017381499749      11.715511747700083      4.9721439285961759
   110   1      4.0595845867047471      11.717350056129922      4.9716141632319415
   111   1      8.1175736012487185      11.715828681941383      4.9710616222808701
   112   1      12.175701610320838      11.717701056046288      4.9708387603411746
   113   1 -0.00082549719679251275      2.3430238014209208      5.7998963854640655
   114   1      4.0582291994579789      2.3425229668670076      5.7997271412212816
   115   1      8.1178308145926739      2.3428382440872029      5.7990124157041718
   116   1      12.176610821969708      2.3418971029210769      5.7980759902354135
   117   1      2.0286780177841393      5.8581495210047221      5.7997943615753877
   118   1      6.0896647422331238      5.8592206277796368      5.7993235154798279
   119   1      10.146963293819054      5.8573604387917966      5.7994649408737979
   120   1      14.205486575398822      5.8586856867167727      5.7986562230662377
   121   1  0.00051934651424111059      9.3749134879632994      5.7993746938613331
   122   1       4.059194635732883       9.374070893042008      5.7990822335379049
   123   1      8.1178099405033759      9.3733933414510791      5.7995811301083391
   124   1      12.175605762248493      9.3734052592245547      5.7999814523010365
   125   1      2.0308476056131863     -1.1707133228052016      5.8016366364673013
   126   1       6.087422038453286      -1.170800272994567      5.7996667960155284
   127   1      10.149172112960176     -1.1724808919166425      5.7986437321676094
   128   1      14.205175841392299     -1.1737964893555952      5.7989576989881098
   129   1  -0.0007591326615536899  0.00015039378647612237      6.6283228462726802
   130   1      4.0606690948500006   0.0009504238381860691      6.6274041866412423
   131   1      8.1166874333502186  0.00049191917150642414      6.6266608570898828
   132   1      12.178210230798205   0.0011794401207213343      6.6275119146447992
   133   1      2.0276833274763004      3.5163716532680263      6.6278665504516523
   134   1      6.0894272023281477       3.513423353235066      6.6273817152739509
   135   1      10.146987553726674      3.5150647614876251      6.6275310248254247
   136   1       14.20639808397009      3.5139501604644785      6.6278387108118828
   137   1  0.00012029563171185824      7.0305500006217798      6.6286927051749931
   138   1      4.0576682819189447      7.0285014476169865      6.6292587671188041
   139   1      8.1179181620335452      7.0292870752511654      6.6295322422724272
   140   1      12.176494446666641      7.0312148589717847      6.6280486087783155
   141   1      2.0314572099302737      10.546808683524025      6.6277321261484241
   142   1      6.0891609569671292      10.545698718631167      6.6293497218544388
   143   1      10.146017386566376      10.545739394141581      6.6290395147837531
   144   1       14.20401649455132      10.543870084168915      6.6259418581191438
   145   1      2.0291270551709468      1.1723901358870827      7.4579810836361133
   146   1      6.0882634807965959      1.1733012091768584      7.4550986251258031
   147   1      10.145278927587601      1.1716170459323905      7.4568627920329584
   148   1      14.205742539289648      1.1696051515312471      7.4563896065445077
   149   1  -0.0013044695005047858      4.6873600470739794      7.4568453248301143
   150   1      4.0578530442244558      4.6861765076078115      7.4554195130621297
   151   1      8.1175231689242935      4.6876455168456506      7.4554930005376816
   152   1      12.176882818547867      4.6861601169067759      7.4556858537517554
   153   1      2.0292894316454371      8.2006729130965894      7.4559250772786712
   154   1      6.0869915081235861      8.2036728805519257      7.4565139901359911
   155   1      10.146282584518964      8.2019221353297453      7.4563663985343274
   156   1      14.205554264438209       8.202322322119052      7.4572362342940659
   157   1 -0.00053050114761062539      11.716150118072225      7.4562036748868668
   158   1      4.0564910028460472      11.715210745250671      7.4578456008514626
   159   1      8.1192308157350688      11.716476900273314       7.457055283547076
   160   1      12.176690022186893      11.719804817121325      7.4575983014954534
   161   1 -0.00012791759148087886      2.3423896468219736      8.2833699165508712
   162   1      4.0589963876466504      2.3425888365172898      8.2835541091615319
   163   1      8.1169392751373248      2.3422636392589595      8.2866635045062011
   164   1      12.177260411789298      2.3433372146212577      8.2864563070100203
   165   1      2.0294738303130395      5.8575016839551051       8.286499486948399
   166   1      6.0887282960598599      5.8573257220021082      8.2847860241930462
   167   1      10.146106691773571      5.8569801684254701      8.2859025404186593
   168   1      14.207684650678214      5.8569644005826147      8.2855393321078203
   169   1 -0.00065064256912189414      9.3728936236665312       8.284383968946889
   170   1      4.0579289332411035      9.3734292706782405      8.2841454127547181
   171   1      8.1178563048473453      9.3733305109408498      8.2847374148242618
   172   1      12.175471208370308      9.3728039777197285      8.2857317540969539
   173   1      2.0298973791930157     -1.1726501488760848       8.285075695176559
   174   1       6.088940773139548      -1.173341998912409      8.2855197230635103
   175   1      10.146319686268011     -1.1711019949626944      8.2842131037145865
   176   1       14.20397035193708     -1.1733001360691711      8.2850244478177899
   177   1  0.00025972250172158522 -0.00090431662510431494      9.1141125916170225
   178   1      4.0571314039485129 -6.6079798647236047e-05      9.1122629829584856
   179   1       8.116934011913763  4.7398671316386225e-05      9.1126135857929622
   180   1      12.175994216488119   0.0010062928092145007      9.1128971072887222
   181   1      2.0302321541174568      3.5138880740392029      9.1140038033361623
   182   1      6.0896309546368323      3.5125461363937327      9.1126771039027776
   183   1      10.147559382154139      3.5148147355078181      9.1138451450316182
   184   1      14.205171248851027      3.5151043706813345      9.1133183219228542
   185   1   0.0011677820616598339      7.0302899826310234      9.1138116018203217
   186   1      4.0583810470446595      7.0295479555636486      9.1130414409704255
   187   1      8.1179803001639446      7.0296145773069014       9.113763774015144
   188   1      12.178454172830994      7.0309066864911536      9.1131479756260774
   189   1      2.0305976759275555       10.54464526730856      9.1114358746230675
   190   1      6.0871812997052572      10.543182550760557      9.1131224856742055
   191   1      10.147000728406148      10.546729779993857      9.1138009265320132
   192   1      14.205556133508933      10.545882748262766      9.1112628638492374
   193   2      2.0002356145581084     0.60077086519388667      10.311995412912468
   194   2      2.0011437540432069      1.7303184964074942      10.313058711244347
